words_hard_train/6457.qaiger
aag 90 16 0 1 74
2
4
8
10
16
18
22
24
32
34
38
42
46
50
54
58
180
6 3 4
12 9 11
14 6 12
20 17 19
26 23 25
28 20 26
30 14 28
36 33 35
40 36 39
44 40 43
48 44 47
52 48 51
56 52 55
60 56 59
62 57 58
64 61 63
66 32 34
68 67 39
70 68 43
72 70 37
74 45 46
76 75 49
78 73 77
80 49 50
82 81 53
84 79 82
86 53 54
88 87 57
90 85 89
92 64 90
94 65 91
96 93 95
98 97 5
100 84 55
102 101 91
104 103 2
106 99 105
108 102 3
110 35 10
112 32 9
114 110 113
116 115 67
118 117 13
120 66 38
122 121 69
124 122 22
126 119 125
128 123 23
130 127 129
132 69 42
134 133 71
136 135 25
138 130 137
140 134 24
142 139 141
144 72 76
146 145 79
148 146 17
150 143 149
152 147 16
154 151 153
156 78 83
158 157 85
160 158 18
162 154 161
164 109 163
166 159 19
168 164 167
170 106 169
172 96 4
174 171 173
176 30 175
178 31 174
180 177 179
i0 1 x2[6]
i1 1 x2[7]
i2 1 x2[0]
i3 1 x2[1]
i4 1 x2[4]
i5 1 x2[5]
i6 1 x2[2]
i7 1 x2[3]
i8 2 y1[0]
i9 2 y1[1]
i10 2 y1[2]
i11 2 y1[3]
i12 2 y1[4]
i13 2 y1[5]
i14 2 y1[6]
i15 2 y1[7]
o0 bv[0]
c
simplified
  >
    add
      invert
        1 x2
      1
    subtract
      210
      2 y1
