words_hard_train/6457.qaiger.qdimacs
p cnf 90 223
a 1 2 4 5 8 9 11 12 0
e 3 6 7 10 13 14 15 16 17 18 19 20 21 22 23 24 25 26 27 28 29 30 31 32 33 34 35 36 37 38 39 40 41 42 43 44 45 46 47 48 49 50 51 52 53 54 55 56 57 58 59 60 61 62 63 64 65 66 67 68 69 70 71 72 73 74 75 76 77 78 79 80 81 82 83 84 85 86 87 88 89 90 0
1 -2 3 0
-1 -3 0
2 -3 0
4 5 6 0
-4 -6 0
-5 -6 0
-3 -6 7 0
3 -7 0
6 -7 0
8 9 10 0
-8 -10 0
-9 -10 0
11 12 13 0
-11 -13 0
-12 -13 0
-10 -13 14 0
10 -14 0
13 -14 0
-7 -14 15 0
7 -15 0
14 -15 0
16 17 18 0
-16 -18 0
-17 -18 0
-18 19 20 0
18 -20 0
-19 -20 0
-20 21 22 0
20 -22 0
-21 -22 0
-22 23 24 0
22 -24 0
-23 -24 0
-24 25 26 0
24 -26 0
-25 -26 0
-26 27 28 0
26 -28 0
-27 -28 0
-28 29 30 0
28 -30 0
-29 -30 0
28 -29 31 0
-28 -31 0
29 -31 0
30 31 32 0
-30 -32 0
-31 -32 0
-16 -17 33 0
16 -33 0
17 -33 0
33 19 34 0
-33 -34 0
-19 -34 0
-34 21 35 0
34 -35 0
-21 -35 0
-35 18 36 0
35 -36 0
-18 -36 0
22 -23 37 0
-22 -37 0
23 -37 0
37 24 38 0
-37 -38 0
-24 -38 0
36 38 39 0
-36 -39 0
-38 -39 0
24 -25 40 0
-24 -40 0
25 -40 0
40 26 41 0
-40 -41 0
-26 -41 0
39 -41 42 0
-39 -42 0
41 -42 0
26 -27 43 0
-26 -43 0
27 -43 0
43 28 44 0
-43 -44 0
-28 -44 0
42 44 45 0
-42 -45 0
-44 -45 0
-32 -45 46 0
32 -46 0
45 -46 0
32 45 47 0
-32 -47 0
-45 -47 0
46 47 48 0
-46 -48 0
-47 -48 0
48 2 49 0
-48 -49 0
-2 -49 0
-42 27 50 0
42 -50 0
-27 -50 0
50 45 51 0
-50 -51 0
-45 -51 0
51 -1 52 0
-51 -52 0
1 -52 0
49 52 53 0
-49 -53 0
-52 -53 0
-51 1 54 0
51 -54 0
-1 -54 0
17 -5 55 0
-17 -55 0
5 -55 0
-16 4 56 0
16 -56 0
-4 -56 0
-55 56 57 0
55 -57 0
-56 -57 0
57 33 58 0
-57 -58 0
-33 -58 0
58 6 59 0
-58 -59 0
-6 -59 0
-33 -19 60 0
33 -60 0
19 -60 0
60 34 61 0
-60 -61 0
-34 -61 0
-61 -11 62 0
61 -62 0
11 -62 0
59 62 63 0
-59 -63 0
-62 -63 0
61 11 64 0
-61 -64 0
-11 -64 0
63 64 65 0
-63 -65 0
-64 -65 0
34 -21 66 0
-34 -66 0
21 -66 0
66 35 67 0
-66 -67 0
-35 -67 0
67 12 68 0
-67 -68 0
-12 -68 0
-65 68 69 0
65 -69 0
-68 -69 0
-67 -12 70 0
67 -70 0
12 -70 0
69 70 71 0
-69 -71 0
-70 -71 0
-36 -38 72 0
36 -72 0
38 -72 0
72 39 73 0
-72 -73 0
-39 -73 0
-73 8 74 0
73 -74 0
-8 -74 0
71 74 75 0
-71 -75 0
-74 -75 0
73 -8 76 0
-73 -76 0
8 -76 0
75 76 77 0
-75 -77 0
-76 -77 0
-39 41 78 0
39 -78 0
-41 -78 0
78 42 79 0
-78 -79 0
-42 -79 0
-79 -9 80 0
79 -80 0
9 -80 0
-77 80 81 0
77 -81 0
-80 -81 0
54 81 82 0
-54 -82 0
-81 -82 0
79 9 83 0
-79 -83 0
-9 -83 0
-82 83 84 0
82 -84 0
-83 -84 0
-53 84 85 0
53 -85 0
-84 -85 0
-48 -2 86 0
48 -86 0
2 -86 0
85 86 87 0
-85 -87 0
-86 -87 0
-15 87 88 0
15 -88 0
-87 -88 0
15 -87 89 0
-15 -89 0
87 -89 0
88 89 90 0
-88 -90 0
-89 -90 0
90 0
